data;
param nombreJob := 6;
param nombreRessource := 3;
param duree := 1 1 2 6 3 10 4 3 5 8 6 5;
param capaciteRessource := 1 5 2 13 3 17;
param besoinRessource : 1 2 3 :=
                    1   2 1 9
                    2   3 8 10
                    3   4 6 1
                    4   4 3 5
                    5   3 4 9
                    6   4 2 6;
end;

